p wcnf 73 269 16
1 -3 0
1 -4 0
1 -1 0
1 -13 0
1 -2 0
1 -14 0
1 -6 0
1 -8 0
1 -10 0
1 -11 0
1 -9 0
1 -7 0
1 -5 0
1 -15 0
1 -12 0
16 1 2 0
16 3 4 0
16 3 5 0
16 3 6 0
16 3 7 0
16 1 8 9 0
16 2 4 10 0
16 4 10 11 0
16 1 4 6 0
16 3 8 10 0
16 3 8 11 0
16 3 11 12 0
16 3 8 13 0
16 1 10 13 14 0
16 2 4 8 9 0
16 3 11 13 15 0
16 3 13 14 15 0
16 3 10 13 15 0
16 2 3 13 15 0
16 1 8 10 11 13 0
16 1 9 10 11 13 0
16 -8 -16 0
16 -9 -16 0
16 8 9 16 0
16 -4 -17 0
16 -6 -17 0
16 4 6 17 0
16 -10 -18 0
16 -13 -18 0
16 -14 -18 0
16 10 13 14 18 0
16 -8 -19 0
16 -10 -19 0
16 -11 -19 0
16 -13 -19 0
16 8 10 11 13 19 0
16 -9 -20 0
16 -10 -20 0
16 -11 -20 0
16 -13 -20 0
16 9 10 11 13 20 0
16 -1 -2 16 17 18 19 20 0
16 -4 -21 0
16 -10 -21 0
16 4 10 21 0
16 -4 -22 0
16 -8 -22 0
16 -9 -22 0
16 4 8 9 22 0
16 -3 -23 0
16 -13 -23 0
16 -15 -23 0
16 3 13 15 23 0
16 -1 -2 21 22 23 0
16 -8 -24 0
16 -10 -24 0
16 8 10 24 0
16 -8 -25 0
16 -11 -25 0
16 8 11 25 0
16 -11 -26 0
16 -12 -26 0
16 11 12 26 0
16 -8 -27 0
16 -13 -27 0
16 8 13 27 0
16 -11 -28 0
16 -13 -28 0
16 -15 -28 0
16 11 13 15 28 0
16 -13 -29 0
16 -14 -29 0
16 -15 -29 0
16 13 14 15 29 0
16 -10 -30 0
16 -13 -30 0
16 -15 -30 0
16 10 13 15 30 0
16 -2 -31 0
16 -13 -31 0
16 -15 -31 0
16 2 13 15 31 0
16 -3 -4 -5 -6 -7 24 25 26 27 28 29 30 31 0
16 -2 -32 0
16 -10 -32 0
16 2 10 32 0
16 -10 -33 0
16 -11 -33 0
16 10 11 33 0
16 -1 -34 0
16 -6 -34 0
16 1 6 34 0
16 -2 -35 0
16 -8 -35 0
16 -9 -35 0
16 2 8 9 35 0
16 -3 -4 32 33 34 35 0
16 -3 -5 0
16 -1 -36 0
16 -4 -36 0
16 1 4 36 0
16 -3 -6 36 0
16 -3 -7 0
16 -1 -37 0
16 -9 -37 0
16 1 9 37 0
16 -3 -38 0
16 -10 -38 0
16 3 10 38 0
16 -3 -39 0
16 -11 -39 0
16 3 11 39 0
16 -3 -40 0
16 -13 -40 0
16 3 13 40 0
16 -2 -41 0
16 -4 -41 0
16 -9 -41 0
16 2 4 9 41 0
16 -1 -42 0
16 -10 -42 0
16 -11 -42 0
16 -13 -42 0
16 1 10 11 13 42 0
16 -8 37 38 39 40 41 42 0
16 -1 -43 0
16 -8 -43 0
16 1 8 43 0
16 -2 -44 0
16 -4 -44 0
16 -8 -44 0
16 2 4 8 44 0
16 -1 -45 0
16 -10 -45 0
16 -11 -45 0
16 -13 -45 0
16 1 10 11 13 45 0
16 -9 43 44 45 0
16 -2 -46 0
16 -4 -46 0
16 2 4 46 0
16 -4 -47 0
16 -11 -47 0
16 4 11 47 0
16 -3 -48 0
16 -8 -48 0
16 3 8 48 0
16 -1 -49 0
16 -13 -49 0
16 -14 -49 0
16 1 13 14 49 0
16 -3 -50 0
16 -13 -50 0
16 -15 -50 0
16 3 13 15 50 0
16 -1 -51 0
16 -8 -51 0
16 -11 -51 0
16 -13 -51 0
16 1 8 11 13 51 0
16 -1 -52 0
16 -9 -52 0
16 -11 -52 0
16 -13 -52 0
16 1 9 11 13 52 0
16 -10 46 47 48 49 50 51 52 0
16 -4 -53 0
16 -10 -53 0
16 4 10 53 0
16 -3 -54 0
16 -8 -54 0
16 3 8 54 0
16 -3 -55 0
16 -12 -55 0
16 3 12 55 0
16 -3 -56 0
16 -13 -56 0
16 -15 -56 0
16 3 13 15 56 0
16 -1 -57 0
16 -8 -57 0
16 -10 -57 0
16 -13 -57 0
16 1 8 10 13 57 0
16 -1 -58 0
16 -9 -58 0
16 -10 -58 0
16 -13 -58 0
16 1 9 10 13 58 0
16 -11 53 54 55 56 57 58 0
16 -3 -59 0
16 -11 -59 0
16 3 11 59 0
16 -12 59 0
16 -3 -60 0
16 -8 -60 0
16 3 8 60 0
16 -1 -61 0
16 -10 -61 0
16 -14 -61 0
16 1 10 14 61 0
16 -3 -62 0
16 -11 -62 0
16 -15 -62 0
16 3 11 15 62 0
16 -3 -63 0
16 -14 -63 0
16 -15 -63 0
16 3 14 15 63 0
16 -3 -64 0
16 -10 -64 0
16 -15 -64 0
16 3 10 15 64 0
16 -2 -65 0
16 -3 -65 0
16 -15 -65 0
16 2 3 15 65 0
16 -1 -66 0
16 -8 -66 0
16 -10 -66 0
16 -11 -66 0
16 1 8 10 11 66 0
16 -1 -67 0
16 -9 -67 0
16 -10 -67 0
16 -11 -67 0
16 1 9 10 11 67 0
16 -13 60 61 62 63 64 65 66 67 0
16 -1 -68 0
16 -10 -68 0
16 -13 -68 0
16 1 10 13 68 0
16 -3 -69 0
16 -13 -69 0
16 -15 -69 0
16 3 13 15 69 0
16 -14 68 69 0
16 -3 -70 0
16 -11 -70 0
16 -13 -70 0
16 3 11 13 70 0
16 -3 -71 0
16 -13 -71 0
16 -14 -71 0
16 3 13 14 71 0
16 -3 -72 0
16 -10 -72 0
16 -13 -72 0
16 3 10 13 72 0
16 -2 -73 0
16 -3 -73 0
16 -13 -73 0
16 2 3 13 73 0
16 -15 70 71 72 73 0
